# Solution for model GasLib-40
# Objective value = 4.4775973174526676e+01
loadshed[innode_1] 0
loadshed[innode_2] 0
loadshed[innode_3] 0
loadshed[innode_4] 0
loadshed[innode_5] 0
loadshed[innode_6] 0
loadshed[innode_7] 0
loadshed[innode_8] 0
loadshed[source_1] -1.4981519359262552e-01
loadshed[source_2] 2.0697233648064284e-01
loadshed[source_3] 0.22607326067569
loadshed[sink_1] 0
loadshed[sink_2] 0
loadshed[sink_3] 0
loadshed[sink_4] 0
loadshed[sink_5] 0
loadshed[sink_6] 0
loadshed[sink_7] 0
loadshed[sink_8] 0
loadshed[sink_9] 0
loadshed[sink_10] 0
loadshed[sink_11] 0
loadshed[sink_12] 1
loadshed[sink_13] 0
loadshed[sink_14] 0
loadshed[sink_15] 0
loadshed[sink_16] 0
loadshed[sink_17] 0
loadshed[sink_18] 0
loadshed[sink_19] 0
loadshed[sink_20] 0
loadshed[sink_21] 1
loadshed[sink_22] 0
loadshed[sink_23] 0
loadshed[sink_24] 7.3789390111755448e-01
loadshed[sink_25] 0
loadshed[sink_26] 0
loadshed[sink_27] 0
loadshed[sink_28] 0
loadshed[sink_29] 0
flow[source_1,sink_3] 1.8177460334816749e+02
flow[innode_1,sink_16] 1.6354166666666970e+01
flow[innode_6,sink_13] -7.8711265327633342e+00
flow[sink_13,sink_14] -2.4225293199430002e+01
flow[sink_14,sink_10] -4.0579459866096670e+01
flow[sink_25,sink_26] 1.2620132365475068e+02
flow[sink_26,sink_9] 1.6354166666669244e+01
flow[sink_9,sink_18] 0
flow[sink_26,sink_4] 9.3492990321414766e+01
flow[sink_4,sink_20] -4.1626869837393542e+01
flow[sink_18,sink_6] -1.6354166666667879e+01
flow[sink_25,innode_8] -1.4906627001483113e+02
flow[sink_6,sink_7] -6.5416666666666671e+01
flow[sink_6,sink_22] 3.2708333333333641e+01
flow[sink_7,sink_24] 4.2865268254733273e+00
flow[sink_22,sink_1] 1.6354166666666970e+01
flow[sink_24,sink_21] 0
flow[sink_21,sink_12] 0
flow[sink_7,sink_5] -8.6057360158808180e+01
flow[sink_5,sink_17] -1.0241152682547485e+02
flow[sink_17,sink_4] -1.1876569349214151e+02
flow[sink_17,sink_8] 0
flow[sink_3,sink_23] 16.3541666666697
flow[sink_8,sink_20] -1.6354166666668334e+01
flow[sink_25,sink_20] 74.3352031707285
flow[sink_25,sink_15] -5.9953296944551610e+01
flow[sink_15,sink_29] -9.2661630277902532e+01
flow[sink_29,sink_28] 1.6354166666667879e+01
flow[sink_29,sink_2] 0
flow[sink_2,sink_15] -1.6354166666684250e+01
flow[sink_29,innode_7] -1.2536996361123725e+02
flow[innode_4,sink_19] 47.559075286342
flow[sink_19,innode_3] 4.3744898036148435e+01
flow[innode_4,innode_5] 7.4791217913087976e+01
flow[sink_27,innode_5] -7.4791217913087976e+01
flow[sink_27,sink_19] 5.8437051246421312e+01
flow[sink_10,sink_11] 3.2708333333333641e+01
flow[sink_10,innode_2] -4.5897061829948541e+01
flow[sink_10,innode_3] -4.3744898036148435e+01
flow[innode_6,sink_25] 7.8711265327633342e+00
flow[sink_11,innode_1] 1.6354166666666970e+01
flow[sink_19,innode_2] 4.5897061829948541e+01
flow[source_3,innode_4] 1.2235029319942998e+02
flow[source_2,innode_7] 1.2536996361123725e+02
flow[sink_3,innode_8] 1.4906627001483113e+02
pressure[innode_1] 7.6508960092545749e+01
pressure[innode_2] 7.9086510678935781e+01
pressure[innode_3] 7.8989642555807066e+01
pressure[innode_4] 81.01325
pressure[innode_5] 8.0961804656566244e+01
pressure[innode_6] 7.4654564497062367e+01
pressure[innode_7] 81.01325
pressure[innode_8] 8.0405646941422489e+01
pressure[source_1] 81.01325
pressure[source_2] 81.01325
pressure[source_3] 81.01325
pressure[sink_1] 2.9219113071534952e+00
pressure[sink_2] 74.8920036572786
pressure[sink_3] 8.0405646941422489e+01
pressure[sink_4] 53.87933862586
pressure[sink_5] 4.1711586941638892e+01
pressure[sink_6] 5.0229889175408688e+00
pressure[sink_7] 5.9210038211410581e+00
pressure[sink_8] 5.5793623927923960e+01
pressure[sink_9] 64.7874403020432
pressure[sink_10] 76.6606614001493
pressure[sink_11] 7.6508960092545749e+01
pressure[sink_12] 1.01325
pressure[sink_13] 7.4697956702250053e+01
pressure[sink_14] 7.4741309927969155e+01
pressure[sink_15] 7.4945396407045038e+01
pressure[sink_16] 7.5487310257728069e+01
pressure[sink_17] 49.3405054383592
pressure[sink_18] 4.5862839747876292e+00
pressure[sink_19] 7.9086510678935781e+01
pressure[sink_20] 5.6933279351512248e+01
pressure[sink_21] 1.01325
pressure[sink_22] 3.9856804495085054e+00
pressure[sink_23] 80.2409289297627
pressure[sink_24] 1.01325
pressure[sink_25] 7.4654564497062367e+01
pressure[sink_26] 6.5766279385985612e+01
pressure[sink_27] 8.0341175747198562e+01
pressure[sink_28] 77.3648123360504
pressure[sink_29] 7.7660094609667581e+01
interdiction[source_1,sink_3] 0
interdiction[innode_1,sink_16] 0
interdiction[innode_6,sink_13] 0
interdiction[sink_13,sink_14] 0
interdiction[sink_14,sink_10] 0
interdiction[sink_25,sink_26] 0
interdiction[sink_26,sink_9] 0
interdiction[sink_9,sink_18] 1
interdiction[sink_26,sink_4] 0
interdiction[sink_4,sink_20] 0
interdiction[sink_18,sink_6] 0
interdiction[sink_25,innode_8] 0
interdiction[sink_6,sink_7] 0
interdiction[sink_6,sink_22] 0
interdiction[sink_7,sink_24] 0
interdiction[sink_22,sink_1] 0
interdiction[sink_24,sink_21] 0
interdiction[sink_21,sink_12] 0
interdiction[sink_7,sink_5] 0
interdiction[sink_5,sink_17] 0
interdiction[sink_17,sink_4] 0
interdiction[sink_17,sink_8] 1
interdiction[sink_3,sink_23] 0
interdiction[sink_8,sink_20] 0
interdiction[sink_25,sink_20] 0
interdiction[sink_25,sink_15] 0
interdiction[sink_15,sink_29] 0
interdiction[sink_29,sink_28] 0
interdiction[sink_29,sink_2] 1
interdiction[sink_2,sink_15] 0
interdiction[sink_29,innode_7] 0
interdiction[innode_4,sink_19] 0
interdiction[sink_19,innode_3] 0
interdiction[innode_4,innode_5] 0
interdiction[sink_27,innode_5] 0
interdiction[sink_27,sink_19] 0
interdiction[sink_10,sink_11] 0
interdiction[sink_10,innode_2] 0
interdiction[sink_10,innode_3] 0
interdiction[innode_6,sink_25] 0
interdiction[sink_11,innode_1] 0
interdiction[sink_19,innode_2] 0
interdiction[source_3,innode_4] 0
interdiction[source_2,innode_7] 0
interdiction[sink_3,innode_8] 0
WCcheckFlow[source_1,sink_3] 39
WCcheckFlow[innode_1,sink_16] 1
WCcheckFlow[innode_6,sink_13] 13
WCcheckFlow[sink_13,sink_14] 12
WCcheckFlow[sink_14,sink_10] 11
WCcheckFlow[sink_25,sink_26] 15
WCcheckFlow[sink_26,sink_9] 1
WCcheckFlow[sink_9,sink_18] 0
WCcheckFlow[sink_26,sink_4] 13
WCcheckFlow[sink_4,sink_20] 2
WCcheckFlow[sink_18,sink_6] -1
WCcheckFlow[sink_25,innode_8] -36
WCcheckFlow[sink_6,sink_7] -4
WCcheckFlow[sink_6,sink_22] 2
WCcheckFlow[sink_7,sink_24] 3
WCcheckFlow[sink_22,sink_1] 1
WCcheckFlow[sink_24,sink_21] 2
WCcheckFlow[sink_21,sink_12] 1
WCcheckFlow[sink_7,sink_5] -8
WCcheckFlow[sink_5,sink_17] -9
WCcheckFlow[sink_17,sink_4] -10
WCcheckFlow[sink_17,sink_8] 0
WCcheckFlow[sink_3,sink_23] 1
WCcheckFlow[sink_8,sink_20] -1
WCcheckFlow[sink_25,sink_20] 0
WCcheckFlow[sink_25,sink_15] 6
WCcheckFlow[sink_15,sink_29] 4
WCcheckFlow[sink_29,sink_28] 1
WCcheckFlow[sink_29,sink_2] 0
WCcheckFlow[sink_2,sink_15] -1
WCcheckFlow[sink_29,innode_7] 2
WCcheckFlow[innode_4,sink_19] -4
WCcheckFlow[sink_19,innode_3] -5
WCcheckFlow[innode_4,innode_5] 2
WCcheckFlow[sink_27,innode_5] -1
WCcheckFlow[sink_27,sink_19] 0
WCcheckFlow[sink_10,sink_11] 3
WCcheckFlow[sink_10,innode_2] 1
WCcheckFlow[sink_10,innode_3] 6
WCcheckFlow[innode_6,sink_25] -14
WCcheckFlow[sink_11,innode_1] 2
WCcheckFlow[sink_19,innode_2] 0
WCcheckFlow[source_3,innode_4] -1
WCcheckFlow[source_2,innode_7] -1
WCcheckFlow[sink_3,innode_8] 37
